SCIP Status        : solving was interrupted [time limit reached]
Total Time         :    3600.00
  solving          :    3600.00
  presolving       :       0.10 (included in solving)
  reading          :       0.00
  copying          :       0.04 (5 #copies) (minimal 0.00, maximal 0.01, average 0.01)
Original Problem   :
  Problem name     : benchmark/block2_55_11_10_14.design
  Variables        : 1466 (55 binary, 0 integer, 0 implicit integer, 1411 continuous)
  Constraints      : 2028 initial, 2028 maximal
  Objective        : minimize, 1 non-zeros (abs.min = 1, abs.max = 1)
Presolved Problem  :
  Problem name     : t_benchmark/block2_55_11_10_14.design
  Variables        : 2128 (55 binary, 0 integer, 0 implicit integer, 2073 continuous)
  Constraints      : 2028 initial, 2032 maximal
  Objective        : minimize, 1 non-zeros (abs.min = 1, abs.max = 1)
  Nonzeros         : 6922 constraint, 0 clique table
Presolvers         :   ExecTime  SetupTime  Calls  FixedVars   AggrVars   ChgTypes  ChgBounds   AddHoles    DelCons    AddCons   ChgSides   ChgCoefs
  boundshift       :       0.00       0.00      0          0          0          0          0          0          0          0          0          0
  convertinttobin  :       0.00       0.00      0          0          0          0          0          0          0          0          0          0
  domcol           :       0.00       0.00      1          0          0          0          0          0          0          0          0          0
  dualagg          :       0.00       0.00      0          0          0          0          0          0          0          0          0          0
  dualcomp         :       0.00       0.00      1          0          0          0          0          0          0          0          0          0
  dualinfer        :       0.00       0.00      0          0          0          0          0          0          0          0          0          0
  dualsparsify     :       0.00       0.00      1          0          0          0          0          0          0          0          0          0
  gateextraction   :       0.00       0.00      0          0          0          0          0          0          0          0          0          0
  implics          :       0.00       0.00      1          0          0          0          0          0          0          0          0          0
  inttobinary      :       0.00       0.00      0          0          0          0          0          0          0          0          0          0
  qpkktref         :       0.00       0.00      0          0          0          0          0          0          0          0          0          0
  redvub           :       0.00       0.00      0          0          0          0          0          0          0          0          0          0
  sparsify         :       0.00       0.00      1          0          0          0          0          0          0          0          0          0
  stuffing         :       0.00       0.00      0          0          0          0          0          0          0          0          0          0
  trivial          :       0.00       0.00      2         45          0          0          0          0          0          0          0          0
  tworowbnd        :       0.00       0.00      0          0          0          0          0          0          0          0          0          0
  dualfix          :       0.00       0.00      2         45          0          0          0          0          0          0          0          0
  genvbounds       :       0.00       0.00      0          0          0          0          0          0          0          0          0          0
  probing          :       0.01       0.00      1          0          0          0          0          0          0          0          0          0
  pseudoobj        :       0.00       0.00      0          0          0          0          0          0          0          0          0          0
  symmetry         :       0.00       0.01      1          0          0          0          0          0          0          0          0          0
  vbounds          :       0.00       0.00      0          0          0          0          0          0          0          0          0          0
  linear           :       0.01       0.01      3          0          0          0          0          0          0          0          0          0
  nonlinear        :       0.06       0.00      4          0          0          0        100          0          0          0          0          0
  benders          :       0.00       0.00      0          0          0          0          0          0          0          0          0          0
  components       :       0.01       0.00      1          0          0          0          0          0          0          0          0          0
  root node        :          -          -      -          0          -          -       3386          -          -          -          -          -
Constraints        :     Number  MaxNumber  #Separate #Propagate    #EnfoLP    #EnfoRelax  #EnfoPS    #Check   #ResProp    Cutoffs    DomReds       Cuts    Applied      Conss   Children
  benderslp        :          0          0          0          0       7373          0          0       5369          0          0          0          0          0          0          0
  integral         :          0          0          0          0       7373          0          0       5369          0          0       6782          0          0          0      14216
  linear           :       1377+      1381         76     277173          0          0          0       5363          0         45       7429         27          0          0          0
  nonlinear        :        651        651      64459     277128          0          0          0       5054          0         80     622717    2853777    2830270          0          0
  benders          :          0          0          0          0          0          0          0          6          0          0          0          0          0          0          0
  countsols        :          0          0          0          0          0          0          0          6          0          0          0          0          0          0          0
  components       :          0          0          0          0          0          0          0          0          0          0          0          0          0          0          0
Constraint Timings :  TotalTime  SetupTime   Separate  Propagate     EnfoLP     EnfoPS     EnfoRelax   Check    ResProp    SB-Prop
  benderslp        :       0.01       0.00       0.00       0.00       0.00       0.00       0.00       0.01       0.00       0.00
  integral         :      32.77       0.00       0.00       0.00      32.77       0.00       0.00       0.00       0.00       0.00
  linear           :       5.16       0.01       0.00       5.10       0.00       0.00       0.00       0.03       0.00       0.02
  nonlinear        :     140.87       0.00      98.28      39.48       0.00       0.00       0.00       2.78       0.00       0.33
  benders          :       0.00       0.00       0.00       0.00       0.00       0.00       0.00       0.00       0.00       0.00
  countsols        :       0.00       0.00       0.00       0.00       0.00       0.00       0.00       0.00       0.00       0.00
  components       :       0.03       0.00       0.00       0.03       0.00       0.00       0.00       0.00       0.00       0.00
Propagators        : #Propagate   #ResProp    Cutoffs    DomReds
  dualfix          :          2          0          0          0
  genvbounds       :          0          0          0          0
  nlobbt           :          0          0          0          0
  obbt             :          0          0          0          0
  probing          :          0          0          0          0
  pseudoobj        :      23244          0          0         15
  redcost          :      79208          0          0          0
  rootredcost      :          5          0          0       2720
  symmetry         :          0          0          0          0
  vbounds          :      66866          0          0          0
Propagator Timings :  TotalTime  SetupTime   Presolve  Propagate    ResProp    SB-Prop
  dualfix          :       0.00       0.00       0.00       0.00       0.00       0.00
  genvbounds       :       0.26       0.00       0.00       0.26       0.00       0.00
  nlobbt           :       0.00       0.00       0.00       0.00       0.00       0.00
  obbt             :       0.00       0.00       0.00       0.00       0.00       0.00
  probing          :       0.01       0.00       0.01       0.00       0.00       0.00
  pseudoobj        :       0.17       0.00       0.00       0.17       0.00       0.00
  redcost          :       1.98       0.00       0.00       1.97       0.00       0.01
  rootredcost      :       0.14       0.00       0.00       0.14       0.00       0.00
  symmetry         :       0.09       0.01       0.00       0.08       0.00       0.00
  vbounds          :       0.24       0.00       0.00       0.23       0.00       0.01
Conflict Analysis  :       Time      Calls    Success    DomReds  Conflicts   Literals    Reconvs ReconvLits   Dualrays   Nonzeros   LP Iters   (pool size: [--,--])
  propagation      :       0.00         32          0          -          0        0.0          0        0.0          -          -          -
  infeasible LP    :       0.00          0          0          -          0        0.0          0        0.0         33      233.5          0
  bound exceed. LP :       0.69        207         33          -          0        0.0          0        0.0          0        0.0       3117
  strong branching :       0.00          0          0          -          0        0.0          0        0.0          -          -          0
  pseudo solution  :       0.00          0          0          -          0        0.0          0        0.0          -          -          -
  applied globally :       0.00          -          -          0          0        0.0          -          -         33          -          -
  applied locally  :          -          -          -          0          0        0.0          -          -          0          -          -
Separators         :   ExecTime  SetupTime      Calls  RootCalls    Cutoffs    DomReds  FoundCuts ViaPoolAdd  DirectAdd    Applied ViaPoolApp  DirectApp      Conss
  cut pool         :       0.00          -        937          0          -          -         13         17          -          -          -          -          -    (maximal pool size:          2)
  aggregation      :      11.08       0.00       5335         76          0          0          0          0          0          0          0          0          0
  > cmir           :          -          -          -          -          -          -          -          0          0          0          0          0          -
  > flowcover      :          -          -          -          -          -          -          -          0          0          0          0          0          -
  > knapsackcover  :          -          -          -          -          -          -          -          0          0          0          0          0          -
  cgmip            :       0.00       0.00          0          0          0          0          0          0          0          0          0          0          0
  clique           :       0.00       0.00          1          1          0          0          0          0          0          0          0          0          0
  closecuts        :       0.00       0.00          0          0          0          0          0          0          0          0          0          0          0
  convexproj       :       0.00       0.00          0          0          0          0          0          0          0          0          0          0          0
  disjunctive      :       0.00       0.00          0          0          0          0          0          0          0          0          0          0          0
  eccuts           :       0.00       0.00          0          0          0          0          0          0          0          0          0          0          0
  gauge            :       0.00       0.00          0          0          0          0          0          0          0          0          0          0          0
  gomory           :       3.80       0.00       2688         10          0          0         14         17          1          5          5          0          0
  > gomorymi       :          -          -          -          -          -          -          -         17          1          5          5          0          -
  > strongcg       :          -          -          -          -          -          -          -          0          0          0          0          0          -
  impliedbounds    :       0.50       0.00       5335         76          0          0          0          0          0          0          0          0          0
  interminor       :       0.00       0.00          0          0          0          0          0          0          0          0          0          0          0
  intobj           :       0.00       0.00          0          0          0          0          0          0          0          0          0          0          0
  mcf              :       0.00       0.00          2          2          0          0          0          0          0          0          0          0          0
  minor            :       0.01       0.00          0          0          0          0          0          0          0          0          0          0          0
  mixing           :       0.20       0.00       5335         76          0          0          0          0          0          0          0          0          0
  oddcycle         :       0.00       0.00          0          0          0          0          0          0          0          0          0          0          0
  rapidlearning    :       0.00       0.00          0          0          0          0          0          0          0          0          0          0          0
  rlt              :       0.00       0.00         10         10          0          0          0          0          0          0          0          0          0
  zerohalf         :       1.53       0.00       2698         20          0          0          0          0          0          0          0          0          0
Cutselectors       :   ExecTime  SetupTime      Calls  RootCalls   Selected     Forced   Filtered  RootSelec   RootForc   RootFilt 
  hybrid           :       3.19       0.00      64459         76    2830275          0      23547       5980          0        392
Pricers            :   ExecTime  SetupTime      Calls       Vars
  problem variables:       0.00          -          0          0
Branching Rules    :   ExecTime  SetupTime   BranchLP  BranchExt   BranchPS    Cutoffs    DomReds       Cuts      Conss   Children
  allfullstrong    :       0.00       0.00          0          0          0          0          0          0          0          0
  cloud            :       0.00       0.00          0          0          0          0          0          0          0          0
  distribution     :       0.00       0.00          0          0          0          0          0          0          0          0
  fullstrong       :       0.00       0.00          0          0          0          0          0          0          0          0
  inference        :       0.00       0.00          0          0          0          0          0          0          0          0
  leastinf         :       0.00       0.00          0          0          0          0          0          0          0          0
  lookahead        :       0.00       0.00          0          0          0          0          0          0          0          0
  mostinf          :       0.00       0.00          0          0          0          0          0          0          0          0
  multaggr         :       0.00       0.00          0          0          0          0          0          0          0          0
  nodereopt        :       0.00       0.00          0          0          0          0          0          0          0          0
  pscost           :       0.00       0.00          0          0          0          0          0          0          0          0
  random           :       0.00       0.00          0          0          0          0          0          0          0          0
  relpscost        :      32.74       0.00       7373          0          0          0       6782          0          0      14216
  vanillafullstrong:       0.00       0.00          0          0          0          0          0          0          0          0
Primal Heuristics  :   ExecTime  SetupTime      Calls      Found       Best
  LP solutions     :       0.00          -          -          0          0
  relax solutions  :       0.00          -          -          0          0
  pseudo solutions :       0.00          -          -          0          0
  strong branching :       0.02          -          -          0          0
  actconsdiving    :       0.00       0.00          0          0          0
  adaptivediving   :       4.90       0.00         40          0          0
  alns             :       4.52       0.00          5          0          0
  bound            :       0.00       0.00          0          0          0
  clique           :       0.00       0.00          0          0          0
  coefdiving       :       0.00       0.00          0          0          0
  completesol      :       0.00       0.00          0          0          0
  conflictdiving   :      67.00       0.00        351          0          0
  crossover        :       0.01       0.00          0          0          0
  dins             :       0.00       0.00          0          0          0
  distributiondivin:     185.96       0.00        351          0          0
  dps              :       0.00       0.00          0          0          0
  dualval          :       0.00       0.00          0          0          0
  farkasdiving     :       0.00       0.00          0          0          0
  feaspump         :       6.36       0.00         11          0          0
  fixandinfer      :       0.00       0.00          0          0          0
  fracdiving       :      61.86       0.00        351          0          0
  gins             :       0.01       0.00          0          0          0
  guideddiving     :      61.77       0.00        351          0          0
  indicator        :       0.06       0.00          0          0          0
  indicatordiving  :       0.00       0.00          0          0          0
  intdiving        :       0.00       0.00          0          0          0
  intshifting      :       2.24       0.00         32          0          0
  linesearchdiving :      50.42       0.00        352          0          0
  localbranching   :       0.00       0.00          0          0          0
  locks            :       0.01       0.00          1          0          0
  lpface           :       0.00       0.00          0          0          0
  mpec             :       2.45       0.00          1          0          0
  multistart       :       0.00       0.00          0          0          0
  mutation         :       0.00       0.00          0          0          0
  nlpdiving        :       5.60       0.00          4          0          0
  objpscostdiving  :       9.90       0.00          6          0          0
  octane           :       0.00       0.00          0          0          0
  ofins            :       0.00       0.00          0          0          0
  oneopt           :       0.00       0.00          5          0          0
  padm             :       0.00       0.00          0          0          0
  proximity        :       0.00       0.00          0          0          0
  pscostdiving     :      80.96       0.00        352          0          0
  randrounding     :       0.52       0.00        419          0          0
  rens             :       0.00       0.00          0          0          0
  reoptsols        :       0.00       0.00          0          0          0
  repair           :       0.00       0.00          0          0          0
  rins             :       0.00       0.00          0          0          0
  rootsoldiving    :       3.60       0.00         15          0          0
  rounding         :       0.90       0.00       3743          0          0
  shiftandpropagate:       0.01       0.00          1          0          0
  shifting         :       1.87       0.00       1150          0          0
  simplerounding   :       0.11       0.00          0          0          0
  subnlp           :       5.72       0.00         18          5          5
  trivial          :       0.00       0.00          2          0          0
  trivialnegation  :       0.00       0.00          0          0          0
  trustregion      :       0.00       0.00          0          0          0
  trysol           :       0.08       0.00          0          0          0
  twoopt           :       0.00       0.00          0          0          0
  undercover       :       0.14       0.00          1          0          0
  vbounds          :       0.00       0.00          0          0          0
  veclendiving     :      28.35       0.00        351          0          0
  zeroobj          :       0.00       0.00          0          0          0
  zirounding       :       0.06       0.00       1000          0          0
  other solutions  :          -          -          -          0          -
Diving (single)    :      Calls      Nodes   LP Iters Backtracks  Conflicts   MinDepth   MaxDepth   AvgDepth  RoundSols  NLeafSols  MinSolDpt  MaxSolDpt  AvgSolDpt
  actconsdiving    :          0          -          -          -          -          -          -          -          -          -          -          -          -
  coefdiving       :          0          -          -          -          -          -          -          -          -          -          -          -          -
  conflictdiving   :        351      12272     424181         57         18         42         55       48.4          0          -          -          -          -
  distributiondivin:        351       8375     411735         36         12         17         55       38.1          0          -          -          -          -
  farkasdiving     :          0          -          -          -          -          -          -          -          -          -          -          -          -
  fracdiving       :        351      13790     384931          1          0         48         55       53.6          0          -          -          -          -
  guideddiving     :        351      12897     386403          2          0         42         55       52.4          0          -          -          -          -
  indicatordiving  :          0          -          -          -          -          -          -          -          -          -          -          -          -
  linesearchdiving :        352      10125     326083          5          0         31         55       44.2          0          -          -          -          -
  pscostdiving     :        352      14037     499565          0          0         51         55       54.5          0          -          -          -          -
  veclendiving     :        351       3124     218865         45          3         17         30       23.5          0          -          -          -          -
Diving (adaptive)  :      Calls      Nodes   LP Iters Backtracks  Conflicts   MinDepth   MaxDepth   AvgDepth  RoundSols  NLeafSols  MinSolDpt  MaxSolDpt  AvgSolDpt
  actconsdiving    :         10         85       7465          0          0         19         29       22.8          0          -          -          -          -
  coefdiving       :          9         80       5320          0          0         18         26       21.1          0          -          -          -          -
  conflictdiving   :          0          -          -          -          -          -          -          -          -          -          -          -          -
  distributiondivin:          0          -          -          -          -          -          -          -          -          -          -          -          -
  farkasdiving     :          0          -          -          -          -          -          -          -          -          -          -          -          -
  fracdiving       :          3        126       2943          0          0         53         55       54.3          0          -          -          -          -
  guideddiving     :          2         71       2115          0          0         50         53       51.5          0          -          -          -          -
  indicatordiving  :          0          -          -          -          -          -          -          -          -          -          -          -          -
  linesearchdiving :          5        137       4339          0          0         35         51       44.0          0          -          -          -          -
  pscostdiving     :          7        272       9402          0          0         52         55       54.3          0          -          -          -          -
  veclendiving     :          4         36       2253          0          0         23         26       24.2          0          -          -          -          -
Neighborhoods      :      Calls  SetupTime  SolveTime SolveNodes       Sols       Best       Exp3  EpsGreedy        UCB TgtFixRate  Opt  Inf Node Stal  Sol  Usr Othr Actv
  rens             :          1       0.01       0.00          0          0          0    0.00000   -1.00000    1.00000      0.700    0    1    0    0    0    0    0    1
  rins             :          1       0.02       2.78         35          0          0    0.00000   -1.00000    1.00000      0.700    0    1    0    0    0    0    0    1
  mutation         :          1       0.01       1.09         13          0          0    0.00000   -1.00000    1.00000      0.700    0    1    0    0    0    0    0    1
  localbranching   :          0       0.00       0.00          0          0          0    0.00000   -1.00000    1.00000      0.900    0    0    0    0    0    0    0    1
  crossover        :          0       0.00       0.00          0          0          0    0.00000   -1.00000    1.00000      0.900    0    0    0    0    0    0    0    1
  proximity        :          1       0.01       0.55          3          0          0    0.00000   -1.00000    1.00000      0.700    0    1    0    0    0    0    0    1
  zeroobjective    :          1       0.01       0.00          0          0          0    0.00000   -1.00000    1.00000      0.900    0    0    0    0    0    0    1    1
  dins             :          0       0.00       0.00          0          0          0    0.00000   -1.00000    1.00000      0.900    0    0    0    0    0    0    0    1
  trustregion      :          0       0.00       0.00          0          0          0    0.00000   -1.00000    1.00000      0.900    0    0    0    0    0    0    0    0
Expressions        :   #IntEval  IntEvalTi   #RevProp  RevPropTi    DomReds    Cutoffs  #Estimate  EstimTime  Branching  #Simplify SimplifyTi Simplified
  pow              :    5044669       1.61    1836531       0.83    3215952          0       1007       0.00          0       1420       0.00          0
  prod             :    4365792       1.75      27898       0.21        140          0          0       0.00          0       1102       0.00        550
  sum              :    4808617       1.46    2986219       1.50     199416          0        101       0.00          0       1402       0.01        101
  var              :   11720397       3.31          0       0.00          0          0          0       0.00          0       3821       0.00          0
  varidx           :          0       0.00          0       0.00          0          0          0       0.00          0          0       0.00          0
Nonlinear Conshdlr :   WeakSepa  TightenLP DespTghtLP DespBranch DespCutoff    ForceLP  CanonTime
  enforce          :          0          0          0          0          0          0
  presolve         :                                                                         0.05
Nlhdlrs            :    Detects  DetectAll DetectTime   #IntEval  IntEvalTi   #RevProp  RevPropTi    DomReds    Cutoffs   #Enforce   EnfoTime       Cuts  Branching
  soc              :        550        550       0.00          0       0.00          0       0.00          0          0   12422627      32.05    2788411          0
  convex           :          1          1       0.00          0       0.00          0       0.00          0          0      64460       0.28      64459          0
  concave          :          0          0       0.00          0       0.00          0       0.00          0          0          0       0.00          0          0
  quotient         :          0          0       0.00          0       0.00          0       0.00          0          0          0       0.00          0          0
  quadratic        :          0          0       0.00          0       0.00          0       0.00          0          0          0       0.00          0          0
  default          :       3228      16140       0.01   14216332      12.10    4854746      12.88    3415508          0       1108       0.00        907          0
  bilinear         :          0          0       0.00          0       0.00          0       0.00          0          0          0       0.00          0          0
  perspective      :          0          0       0.00          0       0.00          0       0.00          0          0          0       0.00          0          0
LP                 :       Time      Calls Iterations  Iter/call   Iter/sec  Time-0-It Calls-0-It    ItLimit
  primal LP        :     393.84       8539          2       1.00       0.01     393.70       8537
  dual LP          :    2365.31      71858   12589302     175.87    5322.47       0.08        277
  lex dual LP      :       0.00          0          0       0.00          -
  barrier LP       :       0.00          0          0       0.00          -       0.00          0
  resolve instable :       0.00          0          0       0.00          -
  diving/probing LP:     368.34      13764    2775715     201.66    7535.74
  strong branching :      27.04        621     157886     254.24    5838.98          -          -         52
    (at root node) :          -         39        787      20.18          -
  conflict analysis:       0.37        326       3117       9.56    8424.32
NLP relaxation     :
  solve time       :       5.53 (20 calls)
  convexity        :  nonconvex (77 linear rows, 101 convex ineq., 550 nonconvex ineq., 0 nonlinear eq. or two-sided ineq.)
NLP Solvers        :  #Problems  ProblemTi    #Solves  SolveTime      #Iter  Time/Iter      #Okay #TimeLimit #IterLimit #LObjLimit #Interrupt  #NumError #EvalError  #OutOfMem #LicenseEr #OtherTerm   #GlobOpt    #LocOpt  #Feasible #LocInfeas #GlobInfea #Unbounded   #Unknown
  ipopt            :         20       4.58         40      12.55       1247       0.01         28          0         12          0          0          0          0          0          0          0          0         13          6         12          0          0          9
B&B Tree           :
  number of runs   :          1
  nodes            :       7109 (7108 internal, 1 leaves)
  feasible leaves  :          0
  infeas. leaves   :          0
  objective leaves :          0
  nodes (total)    :       7109 (7108 internal, 1 leaves)
  nodes left       :       7109
  max depth        :         22
  max depth (total):         22
  backtracks       :       2589 (36.4%)
  early backtracks :          0 (0.0%)
  nodes exc. ref.  :          0 (0.0%)
  delayed cutoffs  :          0
  repropagations   :          8 (0 domain reductions, 0 cutoffs)
  avg switch length:       8.56
  switching time   :     328.69
Estim. Tree Size   :         -1
Estimation Tree    : 14217 nodes (7108 visited, 7108 internal, 0 leaves, 7109 open), weight: 0.0000 completed 0.0433
Estimations        :      estim      value      trend resolution     smooth
  wbe              :         -1          -          -          -          -
  tree-profile     :         -1          -          -          -          -
  gap              :         -1    0.85084                     1           
  tree-weight      :         -1    0.00000                     1           
  leaf-frequency   :         -1   -0.00007                     1           
  ssg              :         -1    0.93165                     1           
  open-nodes       :         -1 7109.00000                     1           
Root Node          :
  First LP value   : -2.61455153231987e+00
  First LP Iters   :       2040 (51000.00 Iter/sec)
  First LP Time    :       0.04
  Final Dual Bound : -2.20358238569323e+00
  Final Root Iters :      18116
  Root LP Estimate : -2.01332816336955e+00
Solution           :
  Solutions found  :          5 (5 improvements)
  First Solution   : -1.52039143561811e+00   (in run 1, after 1 nodes, 0.53 seconds, depth 0, found by <feaspump>)
  Gap First Sol.   :      71.97 %
  Gap Last Sol.    :      19.01 %
  Primal Bound     : -1.82011105978313e+00   (in run 1, after 2001 nodes, 1032.12 seconds, depth 9, found by <objpscostdiving>)
  Dual Bound       : -2.13920192486138e+00
  Gap              :      17.53 %
Integrals          :      Total       Avg%
  primal-dual      :   58979.13      16.38
  primal-ref       :          -          - (not evaluated)
  dual-ref         :          -          - (not evaluated)
